(set-logic QF_BV)
(declare-fun _substvar_3844_ () (_ BitVec 32))
(declare-fun _substvar_3773_ () (_ BitVec 32))
(declare-fun _substvar_2935_ () (_ BitVec 32))
(declare-fun _substvar_3672_ () (_ BitVec 32))
(declare-fun _substvar_2932_ () (_ BitVec 8))
(assert (let ( (?v_346 (bvadd _substvar_3844_ (_ bv7 32))) (?v_212 (bvadd _substvar_3672_ _substvar_3773_))) (let ( (?v_340 (bvadd ?v_212 (_ bv8 32)))) (let ((?v_345 (bvadd _substvar_2935_ ?v_340)) (?v_321 (bvadd _substvar_3672_ (_ bv4294967292 32)))) (let ( (?v_167 _substvar_2935_)) (and true (= _substvar_3844_ (bvor (bvshl (bvor (_ bv0 32) ((_ zero_extend 24) _substvar_2932_)) (_ bv8 32)) (_ bv0 32))) true true true true true true true true true true true true true true true true true true true true true true true true true true true true true true true true true true true true true true true true true true true true true true true true true true true true true true true true true true true true true true true true true true true true true true true true true true true true true true true true true true true true true true true true true true true true true true true true true true true true true true true true true true true true true true true true true true true true true true true true true true true true true true true true true true true true true true true true true true true true true true true true true true true true true true true true true true true true true true true true true true true true true true true true true true true true true true true true true true true true true true true true true true true true true true true true true true true true true true true true true true true true true true true true true true true true true true true true true true true true true true true true true true true true true true true true true true true true true true true true true true true true true true true true true true true true true true true true true true true true true true true true true true true true true true true true true true true true true true true true true true true true true true true true true true true true true true true true true true true true true true true true true true true true true true true true true true true true true true true true true true true true true true true true true true true true true true true true true true true true true true true true true true true true true true true true true true true true true true true true true true true true true true true true true true true true true true true true true true true true true true true true true true true true true true true true true true true true true true true true true true true true true true true true true true true true true true true true true true true true true true true true true true true true true true true true true true true true true true true true true true true true true true true true true true true true true true true true true true true true true true true true true true true true true true true true true true true true true true true true true true true true true true true true true true true true true true true true true true true true true true true true true true (bvule ?v_167 (_ bv30 32)) true true true true true true true true true true true true true true true true true true true true true true true true true true true true true true true true true true true true true true true true true true true true true true true true true true true true true true true true true true true true true true true true true true true true true true true true true true true true true true true true true true true true true true true true true true true true true true true true true true true true true true true true true true true true true true true true true true true true true true true true true true true true true true true true true true true true true true true true true true true true true true true true true true true true true true true true true true true true true true true true true true true true true true true true true true true true true true true true true true true true true true true true true true true true true true true true true true true true true true true true true true true true true true true true true true true true true true true true true true true true true true true true true true true true true true true true true true true true true true true true true true true true true true true true true true true true true true true true true true true true true true true true true true true true true true true true true true true true true true true true true true true true true true true true true true true true true true true true true true true true true true true (bvule (_ bv13 32) ?v_321) true true true true true true true true true true true true true true true (bvule (bvadd ?v_345 (_ bv4294967295 32)) ?v_346) true true true true true true true true true true true true true true true true true true true true true true true true true true true true true true true true true true true true true true true true true true true true true true true true true true true true true true true true true true true true true true true true true true true true true true true true true true true true (bvult ?v_212 (_ bv573440 32)) true true (bvule (_ bv65536 32) ?v_212) true true true true true true true true true true true true true true true true true true true true true true true true true true true true true true true true true true true true true true true true true true true true true true true true true true (bvult _substvar_3773_ (_ bv65536 32)) true true true true true true true true true true true true true true true true true true true true true true true true true true true true true true true true true true true true true true true true true true true true true true true true true true true true true true true true true true true true true true true true true true true true true true true true true true true true true true true true true true true true true true true true true true true true true true true true true true true true true true true true true true true true true true true true true true true true true true true true true true true true true true true true true true true true true true true true true true true true true true true true true true true))))))
(check-sat)
(exit)
